NAME : LKH/problem_files/LocalTSPInstance8.437219.tour
COMMENT : Length = 437219
COMMENT : Found by LKH [Keld Helsgaun] Fri Jul  2 10:46:03 2021
TYPE : TOUR
DIMENSION : 167
TOUR_SECTION
1
15
16
18
17
20
19
3
2
5
7
9
4
6
8
11
10
12
14
13
31
32
34
30
29
33
36
35
40
38
37
39
41
44
45
42
43
71
72
74
73
46
77
75
76
108
109
106
107
133
134
131
104
102
105
103
129
132
130
128
127
101
100
66
65
68
70
67
69
167
158
166
160
159
161
165
152
153
150
151
63
64
98
99
125
126
124
123
97
96
62
61
149
148
28
27
25
23
21
22
24
26
146
144
142
143
145
147
59
57
55
56
58
60
94
92
90
91
93
95
121
119
117
122
120
118
116
89
88
54
53
141
140
138
139
136
137
163
157
154
162
155
164
156
47
81
48
80
78
79
110
111
112
82
83
135
113
114
85
84
50
49
51
52
86
87
115
-1
EOF
